
Gurobi 10.0.1 (linux64) logging started Tue 15 Aug 2023 12:27:54 AM CDT

Set parameter LogFile to value "/home/dlcole3/graph_abstraction/plasmoexamples/SHP_serial/SHP_reserve_requirements/gurobi_logs/logfile28.log"
Set parameter NodefileStart to value 0.0005
Set parameter TimeLimit to value 36000
Gurobi Optimizer version 10.0.1 build v10.0.1rc0 (linux64)

CPU model: Intel(R) Xeon(R) CPU E5-2698 v4 @ 2.20GHz, instruction set [SSE2|AVX|AVX2]
Thread count: 40 physical cores, 80 logical processors, using up to 8 threads


Warning: excessive time spent in model updates.
Consider calling update less frequently.

Optimize a model with 1105538 rows, 641709 columns and 4644125 nonzeros
Model fingerprint: 0x9ffb4076
Variable types: 599982 continuous, 41727 integer (41727 binary)
Coefficient statistics:
  Matrix range     [5e-02, 2e+04]
  Objective range  [2e-01, 8e+04]
  Bounds range     [5e-02, 2e+04]
  RHS range        [4e-05, 7e+03]
Presolve removed 263256 rows and 118351 columns (presolve time = 5s) ...
Presolve removed 277102 rows and 125170 columns (presolve time = 10s) ...
Presolve removed 279402 rows and 128133 columns (presolve time = 15s) ...
Presolve removed 288197 rows and 132814 columns (presolve time = 20s) ...
Presolve removed 292766 rows and 133691 columns (presolve time = 25s) ...
Presolve removed 293116 rows and 133881 columns (presolve time = 30s) ...
Presolve removed 293186 rows and 133921 columns (presolve time = 35s) ...
Sparsify removed 121166 nonzeros (3%)
Presolve removed 293186 rows and 133332 columns
Presolve time: 36.05s
Presolved: 812352 rows, 508377 columns, 3882028 nonzeros
Variable types: 475045 continuous, 33332 integer (33286 binary)

Deterministic concurrent LP optimizer: primal simplex, dual simplex, and barrier
Showing barrier log only...

Root barrier log...

Elapsed ordering time = 5s
Elapsed ordering time = 17s
Elapsed ordering time = 21s
Elapsed ordering time = 25s
Elapsed ordering time = 30s
Elapsed ordering time = 31s
Elapsed ordering time = 35s
Elapsed ordering time = 40s
Elapsed ordering time = 43s
Elapsed ordering time = 45s
Elapsed ordering time = 50s
Elapsed ordering time = 56s
Elapsed ordering time = 60s
Elapsed ordering time = 65s
Ordering time: 66.96s

Barrier statistics:
 Dense cols : 122
 AA' NZ     : 2.251e+07
 Factor NZ  : 3.344e+08 (roughly 3.0 GB of memory)
 Factor Ops : 1.583e+12 (roughly 14 seconds per iteration)
 Threads    : 5

                  Objective                Residual
Iter       Primal          Dual         Primal    Dual     Compl     Time
   0  -2.11679180e+11 -1.80474881e+13  1.24e+04 2.12e+04  1.16e+08   125s
   1  -1.61746398e+11 -1.43711672e+13  1.00e+04 5.75e+06  8.56e+07   133s
   2  -1.15855568e+11 -9.22757893e+12  7.28e+03 1.07e+06  5.47e+07   146s
   3  -2.31659327e+10 -4.74971833e+12  1.69e+03 4.37e+02  1.35e+07   160s
   4  -5.88270198e+09 -1.60801818e+12  6.58e+02 1.10e+00  4.54e+06   174s
   5   3.32673564e+09 -7.42935086e+11  1.44e+02 4.93e-01  1.11e+06   188s
   6   4.91474614e+09 -3.00836852e+11  6.14e+01 1.66e-01  3.84e+05   204s
   7   5.18903741e+09 -1.18930155e+11  1.75e+01 6.98e-02  1.13e+05   219s
   8   3.06903122e+09 -3.54603916e+10  3.20e+00 1.62e-02  2.66e+04   236s
   9   1.50399568e+09 -1.84033588e+10  1.44e+00 9.32e-03  1.28e+04   251s
  10   5.16889107e+08 -5.04271193e+09  4.27e-01 3.13e-03  3.41e+03   267s
  11   9.23763968e+07 -4.72977503e+08  2.82e-04 3.39e-04  3.33e+02   285s
  12   7.38900682e+07 -1.46971499e+08  3.50e-05 6.94e-05  1.30e+02   300s
  13   6.22763677e+07 -9.69293107e+06  3.32e-06 1.61e-04  4.24e+01   321s
  14   5.47634100e+07  3.16090597e+07  8.40e-07 4.54e-05  1.36e+01   345s
  15   5.09920974e+07  4.59033630e+07  3.40e-07 7.65e-06  2.99e+00   365s
  16   5.03904787e+07  4.73353158e+07  2.08e-07 4.57e-06  1.80e+00   381s
  17   5.01978611e+07  4.79738413e+07  1.71e-07 3.16e-06  1.31e+00   395s
  18   4.99349657e+07  4.84255230e+07  1.22e-07 2.11e-06  8.88e-01   411s
  19   4.97899265e+07  4.86264271e+07  9.67e-08 1.63e-06  6.85e-01   426s
  20   4.95816868e+07  4.88372018e+07  5.91e-08 1.10e-06  4.38e-01   442s
  21   4.94717928e+07  4.89656204e+07  3.90e-08 7.74e-07  2.98e-01   457s
  22   4.94418151e+07  4.90070602e+07  3.37e-08 6.66e-07  2.56e-01   471s
  23   4.93875671e+07  4.90579834e+07  2.38e-08 5.30e-07  1.94e-01   485s
  24   4.93482734e+07  4.91689828e+07  1.74e-08 2.43e-07  1.06e-01   499s
  25   4.93098733e+07  4.91880697e+07  2.91e-08 1.89e-07  7.17e-02   519s
  26   4.92946203e+07  4.92246613e+07  1.90e-07 8.79e-08  4.12e-02   539s
  27   4.92844892e+07  4.92359196e+07  2.18e-07 5.81e-08  2.86e-02   557s
  28   4.92804812e+07  4.92424415e+07  2.08e-07 3.96e-08  2.24e-02   573s
  29   4.92733076e+07  4.92464490e+07  1.94e-07 2.84e-08  1.58e-02   589s
  30   4.92678622e+07  4.92479133e+07  1.72e-07 2.45e-08  1.17e-02   605s
  31   4.92643973e+07  4.92520870e+07  1.98e-07 1.33e-08  7.24e-03   623s
  32   4.92592026e+07  4.92540579e+07  1.42e-07 1.98e-08  3.03e-03   643s
  33   4.92585836e+07  4.92555543e+07  8.18e-08 1.64e-08  1.78e-03   661s
  34   4.92579108e+07  4.92565695e+07  8.97e-08 1.40e-08  7.89e-04   679s
  35   4.92576502e+07  4.92573481e+07  7.01e-08 1.69e-08  1.78e-04   695s
  36   4.92575597e+07  4.92573914e+07  4.11e-08 1.47e-08  9.91e-05   713s
  37   4.92575057e+07  4.92574962e+07  1.65e-08 1.14e-08  5.55e-06   729s
  38   4.92574986e+07  4.92574975e+07  1.03e-05 1.60e-08  5.16e-07   744s
  39   4.92574977e+07  4.92574977e+07  1.01e-06 3.20e-08  1.63e-08   759s
  40   4.92574982e+07  4.92574977e+07  3.96e-05 3.21e-08  4.88e-09   775s

Barrier solved model in 40 iterations and 774.53 seconds (712.64 work units)
Optimal objective 4.92574982e+07


Root crossover log...

  315352 DPushes remaining with DInf 0.0000000e+00               776s
   65188 DPushes remaining with DInf 0.0000000e+00               783s
   45505 DPushes remaining with DInf 0.0000000e+00               785s
   15829 DPushes remaining with DInf 0.0000000e+00               790s
    5700 DPushes remaining with DInf 0.0000000e+00               795s
       0 DPushes remaining with DInf 0.0000000e+00               800s

   20568 PPushes remaining with PInf 0.0000000e+00               800s
    2390 PPushes remaining with PInf 0.0000000e+00               806s
       0 PPushes remaining with PInf 0.0000000e+00               807s

  Push phase complete: Pinf 0.0000000e+00, Dinf 4.2477836e-07    807s


Root simplex log...

Iteration    Objective       Primal Inf.    Dual Inf.      Time
  154113    4.9257498e+07   0.000000e+00   0.000000e+00    808s
  154113    4.9257498e+07   0.000000e+00   0.000000e+00    810s
Concurrent spin time: 0.46s

Solved with barrier

Root relaxation: objective 4.925750e+07, 154113 iterations, 769.81 seconds (700.21 work units)
Total elapsed time = 817.71s
Total elapsed time = 820.42s

    Nodes    |    Current Node    |     Objective Bounds      |     Work
 Expl Unexpl |  Obj  Depth IntInf | Incumbent    BestBd   Gap | It/Node Time

     0     0 4.9257e+07    0  422          - 4.9257e+07      -     -  837s
H    0     0                    4.961638e+07 4.9257e+07  0.72%     -  862s

Explored 1 nodes (154267 simplex iterations) in 862.73 seconds (785.30 work units)
Thread count was 8 (of 80 available processors)

Solution count 2: 4.96164e+07 4.96164e+07 

Optimal solution found (tolerance 5.00e-02)
Best objective 4.961638353956e+07, best bound 4.925749767892e+07, gap 0.7233%

User-callback calls 35089, time in user-callback 0.09 sec
